(set-option :produce-unsat-cores true) ; enable generation of unsat cores
(set-option :produce-models true) ; enable model generation
(set-logic ALL)
(declare-sort var630 0)
(declare-sort var2142 0)
(declare-sort var1756 0)
(declare-sort var2511 0)
(declare-sort var3144 0)
(declare-sort var3137 0)
(declare-sort var1334 0)
(declare-sort var1660 0)
(declare-sort var1893 0)
(declare-sort var1964 0)
(declare-sort var3443 0)
(declare-sort var1516 0)
(declare-sort var603 0)
(declare-sort var1819 0)
(declare-sort void 0)
(declare-sort Iterator 0)
(declare-sort ClassObject 0)
(declare-fun var630-init () var630)
(declare-fun getTag/540513337 (var630) String)
(declare-fun <init>/-634645633 (var630 String) void)
(declare-fun getNamespace/-1550894504 (var630) String)
(declare-fun setNamespace/1846732856 (var630 String) void)
(declare-fun setProject/-854120159 (var1756 var2142) void)
(declare-fun cast-from-var630-to-var1756 (var630) var1756)
(declare-fun getQName/-980174729 (var630) String)
(declare-fun setQName/113892823 (var630 String) void)
(declare-fun getTaskType/1957558293 (var2511) String)
(declare-fun cast-from-var630-to-var2511 (var630) var2511)
(declare-fun setTaskType/-427557217 (var2511 String) void)
(declare-fun getTaskName/1660669623 (var630) String)
(declare-fun setTaskName/1728448430 (var2511 String) void)
(declare-fun getLocation/851674571 (var1756) var3144)
(declare-fun setLocation/1662727289 (var1756 var3144) void)
(declare-fun getOwningTarget/-333899912 (var2511) var3137)
(declare-fun setOwningTarget/-1202856882 (var2511 var3137) void)
(declare-fun var1334-init () var1334)
(declare-fun <init>/-1073117067 (var1334 var1660 String) void)
(declare-fun cast-from-var630-to-var1660 (var630) var1660)
(declare-fun getWrapper/1014161037 (var630) var1334)
(declare-fun getPolyType/2029148520 (var1334) String)
(declare-fun setPolyType/181289202 (var1334 String) void)
(declare-fun getAttributeMap/-1655105061 (var1334) var1893)
(declare-fun var3443_entrySet/1101202697 (var3443) var1964)
(declare-fun cast-from-var1893-to-var3443 (var1893) var3443)
(declare-fun var1964_iterator/1911472585 (var1964) Iterator)
(declare-fun Iterator_hasNext/-1669924200 (Iterator) Bool)
(declare-fun getText/1699429089 (var1334) String)
(define-fun toString/-222306083 ((s String)) String s)
(declare-fun addText/-494488212 (var1334 String) void)
(declare-fun getChildren/350252277 (var1334) var1516)
(declare-fun var1819_list/915947546 (var1516) var603)
(declare-fun iterator/529268990 (var603) Iterator)
(declare-const null-var630 var630)
(declare-const null-var2142 var2142)
(declare-const null-var3137 var3137)
(declare-const var2795 var630) ; Statement: r1 := @this: com.google.javascript.jscomp.jarjar.org.apache.tools.ant.UnknownElement 
(assert (not (= var2795 null-var630)))
(declare-const var2510 var2142) ; Statement: r4 := @parameter0: com.google.javascript.jscomp.jarjar.org.apache.tools.ant.Project 
(assert (not (= var2510 null-var2142)))
(define-const var2643 var630 var630-init) ; Statement: $r0 = new com.google.javascript.jscomp.jarjar.org.apache.tools.ant.UnknownElement 
(assert true)
(define-const var398 String (getTag/540513337 var2795)) ; Statement: $r2 = virtualinvoke r1.<com.google.javascript.jscomp.jarjar.org.apache.tools.ant.UnknownElement: java.lang.String getTag()>() 
(assert true)
;(assert (<init>/-634645633 var2643 var398)) ; Statement: specialinvoke $r0.<com.google.javascript.jscomp.jarjar.org.apache.tools.ant.UnknownElement: void <init>(java.lang.String)>($r2) 

(declare-const var2643!1 var630)
(declare-const var398!1 String)
(assert true)
(define-const var3919 String (getNamespace/-1550894504 var2795)) ; Statement: $r3 = virtualinvoke r1.<com.google.javascript.jscomp.jarjar.org.apache.tools.ant.UnknownElement: java.lang.String getNamespace()>() 
(assert true)
;(assert (setNamespace/1846732856 var2643!1 var3919)) ; Statement: virtualinvoke $r0.<com.google.javascript.jscomp.jarjar.org.apache.tools.ant.UnknownElement: void setNamespace(java.lang.String)>($r3) 

(declare-const var2643!2 var630)
(declare-const var3919!1 String)
(assert true)
;(assert (setProject/-854120159 (cast-from-var630-to-var1756 var2643!2) var2510)) ; Statement: virtualinvoke $r0.<com.google.javascript.jscomp.jarjar.org.apache.tools.ant.UnknownElement: void setProject(com.google.javascript.jscomp.jarjar.org.apache.tools.ant.Project)>(r4) 

(declare-const var2643!3 var630)
(declare-const var2510!1 var2142)
(assert true)
(define-const var3563 String (getQName/-980174729 var2795)) ; Statement: $r5 = virtualinvoke r1.<com.google.javascript.jscomp.jarjar.org.apache.tools.ant.UnknownElement: java.lang.String getQName()>() 
(assert true)
;(assert (setQName/113892823 var2643!3 var3563)) ; Statement: virtualinvoke $r0.<com.google.javascript.jscomp.jarjar.org.apache.tools.ant.UnknownElement: void setQName(java.lang.String)>($r5) 

(declare-const var2643!4 var630)
(declare-const var3563!1 String)
(assert true)
(define-const var3074 String (getTaskType/1957558293 (cast-from-var630-to-var2511 var2795))) ; Statement: $r6 = virtualinvoke r1.<com.google.javascript.jscomp.jarjar.org.apache.tools.ant.UnknownElement: java.lang.String getTaskType()>() 
(assert true)
;(assert (setTaskType/-427557217 (cast-from-var630-to-var2511 var2643!4) var3074)) ; Statement: virtualinvoke $r0.<com.google.javascript.jscomp.jarjar.org.apache.tools.ant.UnknownElement: void setTaskType(java.lang.String)>($r6) 

(declare-const var2643!5 var630)
(declare-const var3074!1 String)
(assert true)
(define-const var3494 String (getTaskName/1660669623 var2795)) ; Statement: $r7 = virtualinvoke r1.<com.google.javascript.jscomp.jarjar.org.apache.tools.ant.UnknownElement: java.lang.String getTaskName()>() 
(assert true)
;(assert (setTaskName/1728448430 (cast-from-var630-to-var2511 var2643!5) var3494)) ; Statement: virtualinvoke $r0.<com.google.javascript.jscomp.jarjar.org.apache.tools.ant.UnknownElement: void setTaskName(java.lang.String)>($r7) 

(declare-const var2643!6 var630)
(declare-const var3494!1 String)
(assert true)
(define-const var3595 var3144 (getLocation/851674571 (cast-from-var630-to-var1756 var2795))) ; Statement: $r8 = virtualinvoke r1.<com.google.javascript.jscomp.jarjar.org.apache.tools.ant.UnknownElement: com.google.javascript.jscomp.jarjar.org.apache.tools.ant.Location getLocation()>() 
(assert true)
;(assert (setLocation/1662727289 (cast-from-var630-to-var1756 var2643!6) var3595)) ; Statement: virtualinvoke $r0.<com.google.javascript.jscomp.jarjar.org.apache.tools.ant.UnknownElement: void setLocation(com.google.javascript.jscomp.jarjar.org.apache.tools.ant.Location)>($r8) 

(declare-const var2643!7 var630)
(declare-const var3595!1 var3144)
(assert true)
(define-const var3179 var3137 (getOwningTarget/-333899912 (cast-from-var630-to-var2511 var2795))) ; Statement: $r9 = virtualinvoke r1.<com.google.javascript.jscomp.jarjar.org.apache.tools.ant.UnknownElement: com.google.javascript.jscomp.jarjar.org.apache.tools.ant.Target getOwningTarget()>() 
 ; Statement: if $r9 != null goto $r10 = virtualinvoke r1.<com.google.javascript.jscomp.jarjar.org.apache.tools.ant.UnknownElement: com.google.javascript.jscomp.jarjar.org.apache.tools.ant.Target getOwningTarget()>() 
(assert (not (= var3179 null-var3137))) ; Cond: $r9 != null 
(assert true)
(define-const var2952 var3137 (getOwningTarget/-333899912 (cast-from-var630-to-var2511 var2795))) ; Statement: $r10 = virtualinvoke r1.<com.google.javascript.jscomp.jarjar.org.apache.tools.ant.UnknownElement: com.google.javascript.jscomp.jarjar.org.apache.tools.ant.Target getOwningTarget()>() 
(assert true)
;(assert (setOwningTarget/-1202856882 (cast-from-var630-to-var2511 var2643!7) var2952)) ; Statement: virtualinvoke $r0.<com.google.javascript.jscomp.jarjar.org.apache.tools.ant.UnknownElement: void setOwningTarget(com.google.javascript.jscomp.jarjar.org.apache.tools.ant.Target)>($r10) 

(declare-const var2643!8 var630)
(declare-const var2952!1 var3137)
(assert true) ; Non Conditional
(define-const var2048 var1334 var1334-init) ; Statement: $r11 = new com.google.javascript.jscomp.jarjar.org.apache.tools.ant.RuntimeConfigurable 
(assert true)
(define-const var724 String (getTaskName/1660669623 var2795)) ; Statement: $r12 = virtualinvoke r1.<com.google.javascript.jscomp.jarjar.org.apache.tools.ant.UnknownElement: java.lang.String getTaskName()>() 
(assert true)
;(assert (<init>/-1073117067 var2048 (cast-from-var630-to-var1660 var2643!8) var724)) ; Statement: specialinvoke $r11.<com.google.javascript.jscomp.jarjar.org.apache.tools.ant.RuntimeConfigurable: void <init>(java.lang.Object,java.lang.String)>($r0, $r12) 

(declare-const var2048!1 var1334)
(declare-const var2643!9 var630)
(declare-const var724!1 String)
(assert true)
(define-const var3228 var1334 (getWrapper/1014161037 var2795)) ; Statement: $r13 = virtualinvoke r1.<com.google.javascript.jscomp.jarjar.org.apache.tools.ant.UnknownElement: com.google.javascript.jscomp.jarjar.org.apache.tools.ant.RuntimeConfigurable getWrapper()>() 
(assert true)
(define-const var121 String (getPolyType/2029148520 var3228)) ; Statement: $r14 = virtualinvoke $r13.<com.google.javascript.jscomp.jarjar.org.apache.tools.ant.RuntimeConfigurable: java.lang.String getPolyType()>() 
(assert true)
;(assert (setPolyType/181289202 var2048!1 var121)) ; Statement: virtualinvoke $r11.<com.google.javascript.jscomp.jarjar.org.apache.tools.ant.RuntimeConfigurable: void setPolyType(java.lang.String)>($r14) 

(declare-const var2048!2 var1334)
(declare-const var121!1 String)
(assert true)
(define-const var3649 var1334 (getWrapper/1014161037 var2795)) ; Statement: $r15 = virtualinvoke r1.<com.google.javascript.jscomp.jarjar.org.apache.tools.ant.UnknownElement: com.google.javascript.jscomp.jarjar.org.apache.tools.ant.RuntimeConfigurable getWrapper()>() 
(assert true)
(define-const var1250 var1893 (getAttributeMap/-1655105061 var3649)) ; Statement: $r35 = virtualinvoke $r15.<com.google.javascript.jscomp.jarjar.org.apache.tools.ant.RuntimeConfigurable: java.util.Hashtable getAttributeMap()>() 
(define-const var3738 var1964 (var3443_entrySet/1101202697 (cast-from-var1893-to-var3443 var1250))) ; Statement: $r16 = interfaceinvoke $r35.<java.util.Map: java.util.Set entrySet()>() 
(define-const var1506 Iterator (var1964_iterator/1911472585 var3738)) ; Statement: $r36 = interfaceinvoke $r16.<java.util.Set: java.util.Iterator iterator()>() 
(assert true) ; Non Conditional
(define-const var1277 Bool (Iterator_hasNext/-1669924200 var1506)) ; Statement: $z1 = interfaceinvoke $r36.<java.util.Iterator: boolean hasNext()>() 
 ; Statement: if $z1 == 0 goto $r17 = virtualinvoke r1.<com.google.javascript.jscomp.jarjar.org.apache.tools.ant.UnknownElement: com.google.javascript.jscomp.jarjar.org.apache.tools.ant.RuntimeConfigurable getWrapper()>() 
(assert (= (ite var1277 1 0) 0)) ; Cond: $z1 == 0 
(assert true)
(define-const var3517 var1334 (getWrapper/1014161037 var2795)) ; Statement: $r17 = virtualinvoke r1.<com.google.javascript.jscomp.jarjar.org.apache.tools.ant.UnknownElement: com.google.javascript.jscomp.jarjar.org.apache.tools.ant.RuntimeConfigurable getWrapper()>() 
(assert true)
(define-const var2473 String (getText/1699429089 var3517)) ; Statement: $r18 = virtualinvoke $r17.<com.google.javascript.jscomp.jarjar.org.apache.tools.ant.RuntimeConfigurable: java.lang.StringBuffer getText()>() 
(assert true)
(define-const var3758 String (toString/-222306083 var2473)) ; Statement: $r19 = virtualinvoke $r18.<java.lang.StringBuffer: java.lang.String toString()>() 
(assert true)
;(assert (addText/-494488212 var2048!2 var3758)) ; Statement: virtualinvoke $r11.<com.google.javascript.jscomp.jarjar.org.apache.tools.ant.RuntimeConfigurable: void addText(java.lang.String)>($r19) 

(declare-const var2048!3 var1334)
(declare-const var3758!1 String)
(assert true)
(define-const var228 var1334 (getWrapper/1014161037 var2795)) ; Statement: $r20 = virtualinvoke r1.<com.google.javascript.jscomp.jarjar.org.apache.tools.ant.UnknownElement: com.google.javascript.jscomp.jarjar.org.apache.tools.ant.RuntimeConfigurable getWrapper()>() 
(assert true)
(define-const var695 var1516 (getChildren/350252277 var228)) ; Statement: $r21 = virtualinvoke $r20.<com.google.javascript.jscomp.jarjar.org.apache.tools.ant.RuntimeConfigurable: java.util.Enumeration getChildren()>() 
(define-const var3630 var603 (var1819_list/915947546 var695)) ; Statement: $r22 = staticinvoke <java.util.Collections: java.util.ArrayList list(java.util.Enumeration)>($r21) 
(assert true)
(define-const var1281 Iterator (iterator/529268990 var3630)) ; Statement: r38 = virtualinvoke $r22.<java.util.ArrayList: java.util.Iterator iterator()>() 
(assert true) ; Non Conditional
(define-const var1055 Bool (Iterator_hasNext/-1669924200 var1281)) ; Statement: $z0 = interfaceinvoke r38.<java.util.Iterator: boolean hasNext()>() 
 ; Statement: if $z0 == 0 goto return $r0 
(assert (= (ite var1055 1 0) 0)) ; Cond: $z0 == 0 
 ; Statement: return $r0 
(check-sat)
(get-model)
(get-unsat-core)
; {var630-init=([], com.google.javascript.jscomp.jarjar.org.apache.tools.ant.UnknownElement), getTag/540513337=([com.google.javascript.jscomp.jarjar.org.apache.tools.ant.UnknownElement], java.lang.String), <init>/-634645633=([com.google.javascript.jscomp.jarjar.org.apache.tools.ant.UnknownElement, java.lang.String], void), getNamespace/-1550894504=([com.google.javascript.jscomp.jarjar.org.apache.tools.ant.UnknownElement], java.lang.String), setNamespace/1846732856=([com.google.javascript.jscomp.jarjar.org.apache.tools.ant.UnknownElement, java.lang.String], void), setProject/-854120159=([com.google.javascript.jscomp.jarjar.org.apache.tools.ant.ProjectComponent, com.google.javascript.jscomp.jarjar.org.apache.tools.ant.Project], void), cast-from-var630-to-var1756=([com.google.javascript.jscomp.jarjar.org.apache.tools.ant.UnknownElement], com.google.javascript.jscomp.jarjar.org.apache.tools.ant.ProjectComponent), getQName/-980174729=([com.google.javascript.jscomp.jarjar.org.apache.tools.ant.UnknownElement], java.lang.String), setQName/113892823=([com.google.javascript.jscomp.jarjar.org.apache.tools.ant.UnknownElement, java.lang.String], void), getTaskType/1957558293=([com.google.javascript.jscomp.jarjar.org.apache.tools.ant.Task], java.lang.String), cast-from-var630-to-var2511=([com.google.javascript.jscomp.jarjar.org.apache.tools.ant.UnknownElement], com.google.javascript.jscomp.jarjar.org.apache.tools.ant.Task), setTaskType/-427557217=([com.google.javascript.jscomp.jarjar.org.apache.tools.ant.Task, java.lang.String], void), getTaskName/1660669623=([com.google.javascript.jscomp.jarjar.org.apache.tools.ant.UnknownElement], java.lang.String), setTaskName/1728448430=([com.google.javascript.jscomp.jarjar.org.apache.tools.ant.Task, java.lang.String], void), getLocation/851674571=([com.google.javascript.jscomp.jarjar.org.apache.tools.ant.ProjectComponent], com.google.javascript.jscomp.jarjar.org.apache.tools.ant.Location), setLocation/1662727289=([com.google.javascript.jscomp.jarjar.org.apache.tools.ant.ProjectComponent, com.google.javascript.jscomp.jarjar.org.apache.tools.ant.Location], void), getOwningTarget/-333899912=([com.google.javascript.jscomp.jarjar.org.apache.tools.ant.Task], com.google.javascript.jscomp.jarjar.org.apache.tools.ant.Target), setOwningTarget/-1202856882=([com.google.javascript.jscomp.jarjar.org.apache.tools.ant.Task, com.google.javascript.jscomp.jarjar.org.apache.tools.ant.Target], void), var1334-init=([], com.google.javascript.jscomp.jarjar.org.apache.tools.ant.RuntimeConfigurable), <init>/-1073117067=([com.google.javascript.jscomp.jarjar.org.apache.tools.ant.RuntimeConfigurable, java.lang.Object, java.lang.String], void), cast-from-var630-to-var1660=([com.google.javascript.jscomp.jarjar.org.apache.tools.ant.UnknownElement], java.lang.Object), getWrapper/1014161037=([com.google.javascript.jscomp.jarjar.org.apache.tools.ant.UnknownElement], com.google.javascript.jscomp.jarjar.org.apache.tools.ant.RuntimeConfigurable), getPolyType/2029148520=([com.google.javascript.jscomp.jarjar.org.apache.tools.ant.RuntimeConfigurable], java.lang.String), setPolyType/181289202=([com.google.javascript.jscomp.jarjar.org.apache.tools.ant.RuntimeConfigurable, java.lang.String], void), getAttributeMap/-1655105061=([com.google.javascript.jscomp.jarjar.org.apache.tools.ant.RuntimeConfigurable], java.util.Hashtable), var3443_entrySet/1101202697=([java.util.Map], java.util.Set), cast-from-var1893-to-var3443=([java.util.Hashtable], java.util.Map), var1964_iterator/1911472585=([java.util.Set], java.util.Iterator), Iterator_hasNext/-1669924200=([java.util.Iterator], boolean), getText/1699429089=([com.google.javascript.jscomp.jarjar.org.apache.tools.ant.RuntimeConfigurable], java.lang.StringBuffer), toString/-222306083=([java.lang.StringBuffer], java.lang.String), addText/-494488212=([com.google.javascript.jscomp.jarjar.org.apache.tools.ant.RuntimeConfigurable, java.lang.String], void), getChildren/350252277=([com.google.javascript.jscomp.jarjar.org.apache.tools.ant.RuntimeConfigurable], java.util.Enumeration), var1819_list/915947546=([java.util.Enumeration], java.util.ArrayList), iterator/529268990=([java.util.ArrayList], java.util.Iterator)}
; {var630=com.google.javascript.jscomp.jarjar.org.apache.tools.ant.UnknownElement, var2795=r1, var2142=com.google.javascript.jscomp.jarjar.org.apache.tools.ant.Project, var2510=r4, var2643=$r0, var398=$r2, var3919=$r3, var1756=com.google.javascript.jscomp.jarjar.org.apache.tools.ant.ProjectComponent, var3563=$r5, var2511=com.google.javascript.jscomp.jarjar.org.apache.tools.ant.Task, var3074=$r6, var3494=$r7, var3144=com.google.javascript.jscomp.jarjar.org.apache.tools.ant.Location, var3595=$r8, var3137=com.google.javascript.jscomp.jarjar.org.apache.tools.ant.Target, var3179=$r9, var2952=$r10, var1334=com.google.javascript.jscomp.jarjar.org.apache.tools.ant.RuntimeConfigurable, var2048=$r11, var724=$r12, var1660=java.lang.Object, var3228=$r13, var121=$r14, var3649=$r15, var1893=java.util.Hashtable, var1250=$r35, var1964=java.util.Set, var3443=java.util.Map, var3738=$r16, var1506=$r36, var1277=$z1, var3517=$r17, var2473=$r18, var3758=$r19, var228=$r20, var1516=java.util.Enumeration, var695=$r21, var603=java.util.ArrayList, var1819=java.util.Collections, var3630=$r22, var1281=r38, var1055=$z0}
; {com.google.javascript.jscomp.jarjar.org.apache.tools.ant.UnknownElement=var630, r1=var2795, com.google.javascript.jscomp.jarjar.org.apache.tools.ant.Project=var2142, r4=var2510, $r0=var2643, $r2=var398, $r3=var3919, com.google.javascript.jscomp.jarjar.org.apache.tools.ant.ProjectComponent=var1756, $r5=var3563, com.google.javascript.jscomp.jarjar.org.apache.tools.ant.Task=var2511, $r6=var3074, $r7=var3494, com.google.javascript.jscomp.jarjar.org.apache.tools.ant.Location=var3144, $r8=var3595, com.google.javascript.jscomp.jarjar.org.apache.tools.ant.Target=var3137, $r9=var3179, $r10=var2952, com.google.javascript.jscomp.jarjar.org.apache.tools.ant.RuntimeConfigurable=var1334, $r11=var2048, $r12=var724, java.lang.Object=var1660, $r13=var3228, $r14=var121, $r15=var3649, java.util.Hashtable=var1893, $r35=var1250, java.util.Set=var1964, java.util.Map=var3443, $r16=var3738, $r36=var1506, $z1=var1277, $r17=var3517, $r18=var2473, $r19=var3758, $r20=var228, java.util.Enumeration=var1516, $r21=var695, java.util.ArrayList=var603, java.util.Collections=var1819, $r22=var3630, r38=var1281, $z0=var1055}
;seq <java.lang.StringBuffer: java.lang.String toString()>
;cnt {"<java.lang.StringBuffer: java.lang.String toString()>": 1}
;stmts r1 := @this: com.google.javascript.jscomp.jarjar.org.apache.tools.ant.UnknownElement;	r4 := @parameter0: com.google.javascript.jscomp.jarjar.org.apache.tools.ant.Project;	$r0 = new com.google.javascript.jscomp.jarjar.org.apache.tools.ant.UnknownElement;	$r2 = virtualinvoke r1.<com.google.javascript.jscomp.jarjar.org.apache.tools.ant.UnknownElement: java.lang.String getTag()>();	specialinvoke $r0.<com.google.javascript.jscomp.jarjar.org.apache.tools.ant.UnknownElement: void <init>(java.lang.String)>($r2);	$r3 = virtualinvoke r1.<com.google.javascript.jscomp.jarjar.org.apache.tools.ant.UnknownElement: java.lang.String getNamespace()>();	virtualinvoke $r0.<com.google.javascript.jscomp.jarjar.org.apache.tools.ant.UnknownElement: void setNamespace(java.lang.String)>($r3);	virtualinvoke $r0.<com.google.javascript.jscomp.jarjar.org.apache.tools.ant.UnknownElement: void setProject(com.google.javascript.jscomp.jarjar.org.apache.tools.ant.Project)>(r4);	$r5 = virtualinvoke r1.<com.google.javascript.jscomp.jarjar.org.apache.tools.ant.UnknownElement: java.lang.String getQName()>();	virtualinvoke $r0.<com.google.javascript.jscomp.jarjar.org.apache.tools.ant.UnknownElement: void setQName(java.lang.String)>($r5);	$r6 = virtualinvoke r1.<com.google.javascript.jscomp.jarjar.org.apache.tools.ant.UnknownElement: java.lang.String getTaskType()>();	virtualinvoke $r0.<com.google.javascript.jscomp.jarjar.org.apache.tools.ant.UnknownElement: void setTaskType(java.lang.String)>($r6);	$r7 = virtualinvoke r1.<com.google.javascript.jscomp.jarjar.org.apache.tools.ant.UnknownElement: java.lang.String getTaskName()>();	virtualinvoke $r0.<com.google.javascript.jscomp.jarjar.org.apache.tools.ant.UnknownElement: void setTaskName(java.lang.String)>($r7);	$r8 = virtualinvoke r1.<com.google.javascript.jscomp.jarjar.org.apache.tools.ant.UnknownElement: com.google.javascript.jscomp.jarjar.org.apache.tools.ant.Location getLocation()>();	virtualinvoke $r0.<com.google.javascript.jscomp.jarjar.org.apache.tools.ant.UnknownElement: void setLocation(com.google.javascript.jscomp.jarjar.org.apache.tools.ant.Location)>($r8);	$r9 = virtualinvoke r1.<com.google.javascript.jscomp.jarjar.org.apache.tools.ant.UnknownElement: com.google.javascript.jscomp.jarjar.org.apache.tools.ant.Target getOwningTarget()>();	if $r9 != null goto $r10 = virtualinvoke r1.<com.google.javascript.jscomp.jarjar.org.apache.tools.ant.UnknownElement: com.google.javascript.jscomp.jarjar.org.apache.tools.ant.Target getOwningTarget()>();	$r10 = virtualinvoke r1.<com.google.javascript.jscomp.jarjar.org.apache.tools.ant.UnknownElement: com.google.javascript.jscomp.jarjar.org.apache.tools.ant.Target getOwningTarget()>();	virtualinvoke $r0.<com.google.javascript.jscomp.jarjar.org.apache.tools.ant.UnknownElement: void setOwningTarget(com.google.javascript.jscomp.jarjar.org.apache.tools.ant.Target)>($r10);	$r11 = new com.google.javascript.jscomp.jarjar.org.apache.tools.ant.RuntimeConfigurable;	$r12 = virtualinvoke r1.<com.google.javascript.jscomp.jarjar.org.apache.tools.ant.UnknownElement: java.lang.String getTaskName()>();	specialinvoke $r11.<com.google.javascript.jscomp.jarjar.org.apache.tools.ant.RuntimeConfigurable: void <init>(java.lang.Object,java.lang.String)>($r0, $r12);	$r13 = virtualinvoke r1.<com.google.javascript.jscomp.jarjar.org.apache.tools.ant.UnknownElement: com.google.javascript.jscomp.jarjar.org.apache.tools.ant.RuntimeConfigurable getWrapper()>();	$r14 = virtualinvoke $r13.<com.google.javascript.jscomp.jarjar.org.apache.tools.ant.RuntimeConfigurable: java.lang.String getPolyType()>();	virtualinvoke $r11.<com.google.javascript.jscomp.jarjar.org.apache.tools.ant.RuntimeConfigurable: void setPolyType(java.lang.String)>($r14);	$r15 = virtualinvoke r1.<com.google.javascript.jscomp.jarjar.org.apache.tools.ant.UnknownElement: com.google.javascript.jscomp.jarjar.org.apache.tools.ant.RuntimeConfigurable getWrapper()>();	$r35 = virtualinvoke $r15.<com.google.javascript.jscomp.jarjar.org.apache.tools.ant.RuntimeConfigurable: java.util.Hashtable getAttributeMap()>();	$r16 = interfaceinvoke $r35.<java.util.Map: java.util.Set entrySet()>();	$r36 = interfaceinvoke $r16.<java.util.Set: java.util.Iterator iterator()>();	$z1 = interfaceinvoke $r36.<java.util.Iterator: boolean hasNext()>();	if $z1 == 0 goto $r17 = virtualinvoke r1.<com.google.javascript.jscomp.jarjar.org.apache.tools.ant.UnknownElement: com.google.javascript.jscomp.jarjar.org.apache.tools.ant.RuntimeConfigurable getWrapper()>();	$r17 = virtualinvoke r1.<com.google.javascript.jscomp.jarjar.org.apache.tools.ant.UnknownElement: com.google.javascript.jscomp.jarjar.org.apache.tools.ant.RuntimeConfigurable getWrapper()>();	$r18 = virtualinvoke $r17.<com.google.javascript.jscomp.jarjar.org.apache.tools.ant.RuntimeConfigurable: java.lang.StringBuffer getText()>();	$r19 = virtualinvoke $r18.<java.lang.StringBuffer: java.lang.String toString()>();	virtualinvoke $r11.<com.google.javascript.jscomp.jarjar.org.apache.tools.ant.RuntimeConfigurable: void addText(java.lang.String)>($r19);	$r20 = virtualinvoke r1.<com.google.javascript.jscomp.jarjar.org.apache.tools.ant.UnknownElement: com.google.javascript.jscomp.jarjar.org.apache.tools.ant.RuntimeConfigurable getWrapper()>();	$r21 = virtualinvoke $r20.<com.google.javascript.jscomp.jarjar.org.apache.tools.ant.RuntimeConfigurable: java.util.Enumeration getChildren()>();	$r22 = staticinvoke <java.util.Collections: java.util.ArrayList list(java.util.Enumeration)>($r21);	r38 = virtualinvoke $r22.<java.util.ArrayList: java.util.Iterator iterator()>();	$z0 = interfaceinvoke r38.<java.util.Iterator: boolean hasNext()>();	if $z0 == 0 goto return $r0;	return $r0
;block_num 7